*NAME:         noswot
*ROWS:         182
*COLUMNS:      128
*INTEGER:      100
*NONZERO:      735
*BEST SOLN:    -43 (opt)  
*LP SOLN:      -43.0
*SOURCE:       
*              Linus E. Schrage (U. Chicago)
*              John W. Gregory (Cray Research)
*APPLICATION:  unknown
*COMMENTS:     75 of the integer variables are binary
*              problem originally formulated as a max - changed to min       
*      
NAME     NOSWOT
ROWS
 N  1       
 L  2       
 L  3       
 L  4       
 L  5       
 L  6       
 L  7       
 G  8       
 L  9       
 G  10      
 L  11      
 G  12      
 L  13      
 G  14      
 L  15      
 G  16      
 L  17      
 G  18      
 G  19      
 G  20      
 G  21      
 G  22      
 G  23      
 G  24      
 G  25      
 G  26      
 G  27      
 G  28      
 G  29      
 G  30      
 G  31      
 G  32      
 G  33      
 G  34      
 G  35      
 G  36      
 G  37      
 G  38      
 G  39      
 G  40      
 G  41      
 G  42      
 G  43      
 G  44      
 G  45      
 G  46      
 G  47      
 G  48      
 G  49      
 G  50      
 G  51      
 G  52      
 G  53      
 G  54      
 G  55      
 G  56      
 G  57      
 L  58      
 L  59      
 L  60      
 L  61      
 L  62      
 L  63      
 G  64      
 L  65      
 G  66      
 L  67      
 G  68      
 L  69      
 G  70      
 L  71      
 G  72      
 L  73      
 G  74      
 G  75      
 G  76      
 G  77      
 G  78      
 G  79      
 G  80      
 G  81      
 G  82      
 G  83      
 G  84      
 G  85      
 G  86      
 G  87      
 G  88      
 G  89      
 G  90      
 G  91      
 G  92      
 G  93      
 G  94      
 G  95      
 G  96      
 G  97      
 G  98      
 G  99      
 G  100     
 G  101     
 G  102     
 G  103     
 G  104     
 L  105     
 L  106     
 L  107     
 L  108     
 L  109     
 L  110     
 G  111     
 L  112     
 G  113     
 L  114     
 G  115     
 L  116     
 G  117     
 L  118     
 G  119     
 L  120     
 G  121     
 G  122     
 G  123     
 G  124     
 G  125     
 G  126     
 G  127     
 G  128     
 G  129     
 G  130     
 G  131     
 G  132     
 G  133     
 G  134     
 G  135     
 G  136     
 G  137     
 G  138     
 G  139     
 G  140     
 L  141     
 L  142     
 L  143     
 L  144     
 L  145     
 L  146     
 G  147     
 E  148     
 G  149     
 E  150     
 G  151     
 L  152     
 G  153     
 L  154     
 G  155     
 L  156     
 G  157     
 G  158     
 G  159     
 G  160     
 G  161     
 G  162     
 G  163     
 G  164     
 G  165     
 G  166     
 L  167     
 L  168     
 L  169     
 L  170     
 L  171     
 L  172     
 G  173     
 L  174     
 G  175     
 L  176     
 G  177     
 L  178     
 G  179     
 L  180     
 G  181     
 L  182     
 L  183     
COLUMNS
    MARK0000  'MARKER'                 'INTORG'
    T121      18                  21   19                 -21
    T122      20                  21   21                 -21
    T123      22                  21   23                 -21
    T124      24                  21   25                 -21
    T125      26                  21   27                 -21
    T131      28                  21   29                 -21
    T132      30                  21   31                 -21
    T133      32                  21   33                 -21
    T134      34                  21   35                 -21
    T135      36                  21   37                 -21
    T141      38                  21   39                 -21
    T142      40                  21   41                 -21
    T143      42                  21   43                 -21
    T144      44                  21   45                 -21
    T145      46                  21   47                 -21
    T151      48                  21   49                 -21
    T152      50                  21   51                 -21
    T153      52                  21   53                 -21
    T154      54                  21   55                 -21
    T155      56                  21   57                 -21
    T231      74                  21   75                 -21
    T232      76                  21   77                 -21
    T233      78                  21   79                 -21
    T234      80                  21   81                 -21
    T235      82                  21   83                 -21
    T241      84                  21   85                 -21
    T242      86                  21   87                 -21
    T243      88                  21   89                 -21
    T244      90                  21   91                 -21
    T245      92                  21   93                 -21
    T251      94                  21   95                 -21
    T252      96                  21   97                 -21
    T253      98                  21   99                 -21
    T254      100                 21   101                -21
    T255      102                 21   103                -21
    T341      121                 21   122                -21
    T342      123                 21   124                -21
    T343      125                 21   126                -21
    T344      127                 21   128                -21
    T345      129                 21   130                -21
    T351      131                 21   132                -21
    T352      133                 21   134                -21
    T353      135                 21   136                -21
    T354      137                 21   138                -21
    T355      139                 21   140                -21
    T451      157                 21   158                -21
    T452      159                 21   160                -21
    T453      161                 21   162                -21
    T454      163                 21   164                -21
    T455      165                 21   166                -21
    W11       3                  -20   8                   -1
    W11       9           -9.6000004   19               -0.75
    W11       29        -0.666700006   39               -0.25
    W11       49               -0.25
    X11       1                   -1   2                    1
    X11       3            2.0833001   8                    1
    X11       9                    1   19          -2.0833001
    X11       29          -2.0833001   39          -2.0833001
    X11       49          -2.0833001   58                   1
    W12       4                  -20   10                  -1
    W12       11          -9.6000004   21               -0.75
    W12       31        -0.666700006   41               -0.25
    W12       51               -0.25
    X12       1                   -1   2                    1
    X12       4            2.0833001   10                   1
    X12       11                   1   21          -2.0833001
    X12       31          -2.0833001   41          -2.0833001
    X12       51          -2.0833001   58                   1
    W13       5                  -20   12                  -1
    W13       13          -9.6000004   23               -0.75
    W13       33        -0.666700006   43               -0.25
    W13       53               -0.25
    X13       1                   -1   2                    1
    X13       5            2.0833001   12                   1
    X13       13                   1   23          -2.0833001
    X13       33          -2.0833001   43          -2.0833001
    X13       53          -2.0833001   58                   1
    W14       6                  -20   14                  -1
    W14       15          -9.6000004   25               -0.75
    W14       35        -0.666700006   45               -0.25
    W14       55               -0.25
    X14       1                   -1   2                    1
    X14       6            2.0833001   14                   1
    X14       15                   1   25          -2.0833001
    X14       35          -2.0833001   45          -2.0833001
    X14       55          -2.0833001   58                   1
    W15       7                  -16   16                  -1
    W15       17          -7.6799998   27               -0.75
    W15       37        -0.666700006   47               -0.25
    W15       57               -0.25
    X15       1                   -1   2                    1
    X15       7            2.0833001   16                   1
    X15       17                   1   27          -2.0833001
    X15       37          -2.0833001   47          -2.0833001
    X15       57          -2.0833001   58                   1
    W21       18        -0.666700006   59                 -20
    W21       64                  -1   65          -6.7199998
    W21       75        -0.666700006   85        -0.666700006
    W21       95        -0.666700006
    X21       1                   -1   2                    1
    X21       18          -2.9762001   59           2.9762001
    X21       64                   1   65                   1
    X21       75          -2.9762001   85          -2.9762001
    X21       95          -2.9762001   104                  1
    X21       105                  1
    W22       20        -0.666700006   60                 -20
    W22       66                  -1   67          -6.7199998
    W22       77        -0.666700006   87        -0.666700006
    W22       97        -0.666700006
    X22       1                   -1   2                    1
    X22       20          -2.9762001   60           2.9762001
    X22       66                   1   67                   1
    X22       77          -2.9762001   87          -2.9762001
    X22       97          -2.9762001   104                  1
    X22       105                  1
    W23       22        -0.666700006   61                 -20
    W23       68                  -1   69          -6.7199998
    W23       79        -0.666700006   89        -0.666700006
    W23       99        -0.666700006
    X23       1                   -1   2                    1
    X23       22          -2.9762001   61           2.9762001
    X23       68                   1   69                   1
    X23       79          -2.9762001   89          -2.9762001
    X23       99          -2.9762001   104                  1
    X23       105                  1
    W24       24        -0.666700006   62                 -20
    W24       70                  -1   71          -6.7199998
    W24       81        -0.666700006   91        -0.666700006
    W24       101       -0.666700006
    X24       1                   -1   2                    1
    X24       24          -2.9762001   62           2.9762001
    X24       70                   1   71                   1
    X24       81          -2.9762001   91          -2.9762001
    X24       101         -2.9762001   104                  1
    X24       105                  1
    W25       26        -0.666700006   63                 -16
    W25       72                  -1   73          -5.3759999
    W25       83        -0.666700006   93        -0.666700006
    W25       103       -0.666700006
    X25       1                   -1   2                    1
    X25       26          -2.9762001   63           2.9762001
    X25       72                   1   73                   1
    X25       83          -2.9762001   93          -2.9762001
    X25       103         -2.9762001   104                  1
    X25       105                  1
    W31       28        -0.666700006   74               -0.75
    W31       106                -20   111                 -1
    W31       112         -5.7600002   122       -0.666700006
    W31       132       -0.666700006
    X31       1                   -1   2                    1
    X31       28          -3.4721999   74          -3.4721999
    X31       106          3.4721999   111                  1
    X31       112                  1   122         -3.4721999
    X31       132         -3.4721999   141                  1
    W32       30        -0.666700006   76               -0.75
    W32       107                -20   113                 -1
    W32       114         -5.7600002   124       -0.666700006
    W32       134       -0.666700006
    X32       1                   -1   2                    1
    X32       30          -3.4721999   76          -3.4721999
    X32       107          3.4721999   113                  1
    X32       114                  1   124         -3.4721999
    X32       134         -3.4721999   141                  1
    W33       32        -0.666700006   78               -0.75
    W33       108                -20   115                 -1
    W33       116         -5.7600002   126       -0.666700006
    W33       136       -0.666700006
    X33       1                   -1   2                    1
    X33       32          -3.4721999   78          -3.4721999
    X33       108          3.4721999   115                  1
    X33       116                  1   126         -3.4721999
    X33       136         -3.4721999   141                  1
    W34       34        -0.666700006   80               -0.75
    W34       109                -20   117                 -1
    W34       118         -5.7600002   128       -0.666700006
    W34       138       -0.666700006
    X34       1                   -1   2                    1
    X34       34          -3.4721999   80          -3.4721999
    X34       109          3.4721999   117                  1
    X34       118                  1   128         -3.4721999
    X34       138         -3.4721999   141                  1
    W35       36        -0.666700006   82               -0.75
    W35       110                -16   119                 -1
    W35       120         -4.6079998   130       -0.666700006
    W35       140       -0.666700006
    X35       1                   -1   2                    1
    X35       36          -3.4721999   82          -3.4721999
    X35       110          3.4721999   119                  1
    X35       120                  1   130         -3.4721999
    X35       140         -3.4721999   141                  1
    W41       38               -0.25   84               -0.75
    W41       121       -0.666700006   142                -20
    W41       147                 -1   148         -8.9280005
    W41       158              -0.25
    X41       1                   -1   2                    1
    X41       38          -2.2400999   84          -2.2400999
    X41       121         -2.2400999   142          2.2400999
    X41       147                  1   148                  1
    X41       158         -2.2400999   167                  1
    W42       40               -0.25   86               -0.75
    W42       123       -0.666700006   143                -20
    W42       149                 -1   150         -8.9280005
    W42       160              -0.25
    X42       1                   -1   2                    1
    X42       40          -2.2400999   86          -2.2400999
    X42       123         -2.2400999   143          2.2400999
    X42       149                  1   150                  1
    X42       160         -2.2400999   167                  1
    W43       42               -0.25   88               -0.75
    W43       125       -0.666700006   144                -20
    W43       151                 -1   152         -8.9280005
    W43       162              -0.25
    X43       1                   -1   2                    1
    X43       42          -2.2400999   88          -2.2400999
    X43       125         -2.2400999   144          2.2400999
    X43       151                  1   152                  1
    X43       162         -2.2400999   167                  1
    W44       44               -0.25   90               -0.75
    W44       127       -0.666700006   145                -20
    W44       153                 -1   154         -8.9280005
    W44       164              -0.25
    X44       1                   -1   2                    1
    X44       44          -2.2400999   90          -2.2400999
    X44       127         -2.2400999   145          2.2400999
    X44       153                  1   154                  1
    X44       164         -2.2400999   167                  1
    W45       46               -0.25   92               -0.75
    W45       129       -0.666700006   146                -16
    W45       155                 -1   156         -7.1423998
    W45       166              -0.25
    X45       1                   -1   2                    1
    X45       46          -2.2400999   92          -2.2400999
    X45       129         -2.2400999   146          2.2400999
    X45       155                  1   156                  1
    X45       166         -2.2400999   167                  1
    W51       48        -0.666700006   94               -0.75
    W51       131       -0.666700006   157       -0.666700006
    W51       168                -20   173                 -1
    W51       174         -9.6000004
    X51       1                   -1   2                    1
    X51       48          -2.0833001   94          -2.0833001
    X51       131         -2.0833001   157         -2.0833001
    X51       168          2.0833001   173                  1
    X51       174                  1   183                  1
    W52       50        -0.666700006   96               -0.75
    W52       133       -0.666700006   159       -0.666700006
    W52       169                -20   175                 -1
    W52       176         -9.6000004
    X52       1                   -1   2                    1
    X52       50          -2.0833001   96          -2.0833001
    X52       133         -2.0833001   159         -2.0833001
    X52       169          2.0833001   175                  1
    X52       176                  1   183                  1
    W53       52        -0.666700006   98               -0.75
    W53       135       -0.666700006   161       -0.666700006
    W53       170                -20   177                 -1
    W53       178         -9.6000004
    X53       1                   -1   2                    1
    X53       52          -2.0833001   98          -2.0833001
    X53       135         -2.0833001   161         -2.0833001
    X53       170          2.0833001   177                  1
    X53       178                  1   183                  1
    W54       54        -0.666700006   100              -0.75
    W54       137       -0.666700006   163       -0.666700006
    W54       171                -20   179                 -1
    W54       180         -9.6000004
    X54       1                   -1   2                    1
    X54       54          -2.0833001   100         -2.0833001
    X54       137         -2.0833001   163         -2.0833001
    X54       171          2.0833001   179                  1
    X54       180                  1   183                  1
    W55       56        -0.666700006   102              -0.75
    W55       139       -0.666700006   165       -0.666700006
    W55       172                -16   181                 -1
    W55       182         -7.6799998
    X55       1                   -1   2                    1
    X55       56          -2.0833001   102         -2.0833001
    X55       139         -2.0833001   165         -2.0833001
    X55       172          2.0833001   181                  1
    X55       182                  1   183                  1
    MARK0001  'MARKER'                 'INTEND'
    S11       3                    1   18                   1
    S11       19                  -1   28                   1
    S11       29                  -1   38                   1
    S11       39                  -1   48                   1
    S11       49                  -1
    S12       4                    1   20                   1
    S12       21                  -1   30                   1
    S12       31                  -1   40                   1
    S12       41                  -1   50                   1
    S12       51                  -1
    S13       5                    1   22                   1
    S13       23                  -1   32                   1
    S13       33                  -1   42                   1
    S13       43                  -1   52                   1
    S13       53                  -1
    S14       6                    1   24                   1
    S14       25                  -1   34                   1
    S14       35                  -1   44                   1
    S14       45                  -1   54                   1
    S14       55                  -1
    S15       7                    1   26                   1
    S15       27                  -1   36                   1
    S15       37                  -1   46                   1
    S15       47                  -1   56                   1
    S15       57                  -1
    S21       18                  -1   19                   1
    S21       59                   1   74                   1
    S21       75                  -1   84                   1
    S21       85                  -1   94                   1
    S21       95                  -1
    S22       20                  -1   21                   1
    S22       60                   1   76                   1
    S22       77                  -1   86                   1
    S22       87                  -1   96                   1
    S22       97                  -1
    S23       22                  -1   23                   1
    S23       61                   1   78                   1
    S23       79                  -1   88                   1
    S23       89                  -1   98                   1
    S23       99                  -1
    S24       24                  -1   25                   1
    S24       62                   1   80                   1
    S24       81                  -1   90                   1
    S24       91                  -1   100                  1
    S24       101                 -1
    S25       26                  -1   27                   1
    S25       63                   1   82                   1
    S25       83                  -1   92                   1
    S25       93                  -1   102                  1
    S25       103                 -1
    S31       28                  -1   29                   1
    S31       74                  -1   75                   1
    S31       106                  1   121                  1
    S31       122                 -1   131                  1
    S31       132                 -1
    S32       30                  -1   31                   1
    S32       76                  -1   77                   1
    S32       107                  1   123                  1
    S32       124                 -1   133                  1
    S32       134                 -1
    S33       32                  -1   33                   1
    S33       78                  -1   79                   1
    S33       108                  1   125                  1
    S33       126                 -1   135                  1
    S33       136                 -1
    S34       34                  -1   35                   1
    S34       80                  -1   81                   1
    S34       109                  1   127                  1
    S34       128                 -1   137                  1
    S34       138                 -1
    S35       36                  -1   37                   1
    S35       82                  -1   83                   1
    S35       110                  1   129                  1
    S35       130                 -1   139                  1
    S35       140                 -1
    S41       38                  -1   39                   1
    S41       84                  -1   85                   1
    S41       121                 -1   122                  1
    S41       142                  1   157                  1
    S41       158                 -1
    S42       40                  -1   41                   1
    S42       86                  -1   87                   1
    S42       123                 -1   124                  1
    S42       143                  1   159                  1
    S42       160                 -1
    S43       42                  -1   43                   1
    S43       88                  -1   89                   1
    S43       125                 -1   126                  1
    S43       144                  1   161                  1
    S43       162                 -1
    S44       44                  -1   45                   1
    S44       90                  -1   91                   1
    S44       127                 -1   128                  1
    S44       145                  1   163                  1
    S44       164                 -1
    S45       46                  -1   47                   1
    S45       92                  -1   93                   1
    S45       129                 -1   130                  1
    S45       146                  1   165                  1
    S45       166                 -1
    S51       48                  -1   49                   1
    S51       94                  -1   95                   1
    S51       131                 -1   132                  1
    S51       157                 -1   158                  1
    S51       168                  1
    S52       50                  -1   51                   1
    S52       96                  -1   97                   1
    S52       133                 -1   134                  1
    S52       159                 -1   160                  1
    S52       169                  1
    S53       52                  -1   53                   1
    S53       98                  -1   99                   1
    S53       135                 -1   136                  1
    S53       161                 -1   162                  1
    S53       170                  1
    S54       54                  -1   55                   1
    S54       100                 -1   101                  1
    S54       137                 -1   138                  1
    S54       163                 -1   164                  1
    S54       171                  1
    S55       56                  -1   57                   1
    S55       102                 -1   103                  1
    S55       139                 -1   140                  1
    S55       165                 -1   166                  1
    S55       172                  1
    V150      150                  1
    V148      148                  1
    Q246      152                  2   154                  3
    Q246      156                  4
RHS
    RHS       2                   43   19                 -21
    RHS       21                 -21   23                 -21
    RHS       25                 -21   27                 -21
    RHS       29                 -21   31                 -21
    RHS       33                 -21   35                 -21
    RHS       37                 -21   39                 -21
    RHS       41                 -21   43                 -21
    RHS       45                 -21   47                 -21
    RHS       49                 -21   51                 -21
    RHS       53                 -21   55                 -21
    RHS       57                 -21   58                  38
    RHS       75                 -21   77                 -21
    RHS       79                 -21   81                 -21
    RHS       83                 -21   85                 -21
    RHS       87                 -21   89                 -21
    RHS       91                 -21   93                 -21
    RHS       95                 -21   97                 -21
    RHS       99                 -21   101                -21
    RHS       103                -21   104                  5
    RHS       105                  9   122                -21
    RHS       124                -21   126                -21
    RHS       128                -21   130                -21
    RHS       132                -21   134                -21
    RHS       136                -21   138                -21
    RHS       140                -21   141                  2
    RHS       158                -21   160                -21
    RHS       162                -21   164                -21
    RHS       166                -21   167                  1
    RHS       183                  2
BOUNDS
 UP LINDOBND  T121                 1
 UP LINDOBND  T122                 1
 UP LINDOBND  T123                 1
 UP LINDOBND  T124                 1
 UP LINDOBND  T125                 1
 UP LINDOBND  T131                 1
 UP LINDOBND  T132                 1
 UP LINDOBND  T133                 1
 UP LINDOBND  T134                 1
 UP LINDOBND  T135                 1
 UP LINDOBND  T141                 1
 UP LINDOBND  T142                 1
 UP LINDOBND  T143                 1
 UP LINDOBND  T144                 1
 UP LINDOBND  T145                 1
 UP LINDOBND  T151                 1
 UP LINDOBND  T152                 1
 UP LINDOBND  T153                 1
 UP LINDOBND  T154                 1
 UP LINDOBND  T155                 1
 UP LINDOBND  T231                 1
 UP LINDOBND  T232                 1
 UP LINDOBND  T233                 1
 UP LINDOBND  T234                 1
 UP LINDOBND  T235                 1
 UP LINDOBND  T241                 1
 UP LINDOBND  T242                 1
 UP LINDOBND  T243                 1
 UP LINDOBND  T244                 1
 UP LINDOBND  T245                 1
 UP LINDOBND  T251                 1
 UP LINDOBND  T252                 1
 UP LINDOBND  T253                 1
 UP LINDOBND  T254                 1
 UP LINDOBND  T255                 1
 UP LINDOBND  T341                 1
 UP LINDOBND  T342                 1
 UP LINDOBND  T343                 1
 UP LINDOBND  T344                 1
 UP LINDOBND  T345                 1
 UP LINDOBND  T351                 1
 UP LINDOBND  T352                 1
 UP LINDOBND  T353                 1
 UP LINDOBND  T354                 1
 UP LINDOBND  T355                 1
 UP LINDOBND  T451                 1
 UP LINDOBND  T452                 1
 UP LINDOBND  T453                 1
 UP LINDOBND  T454                 1
 UP LINDOBND  T455                 1
 UP LINDOBND  W11                  1
 UP LINDOBND  X11             100000
 UP LINDOBND  W12                  1
 UP LINDOBND  X12             100000
 UP LINDOBND  W13                  1
 UP LINDOBND  X13             100000
 UP LINDOBND  W14                  1
 UP LINDOBND  X14             100000
 UP LINDOBND  W15                  1
 UP LINDOBND  X15             100000
 UP LINDOBND  W21                  1
 UP LINDOBND  X21             100000
 UP LINDOBND  W22                  1
 UP LINDOBND  X22             100000
 UP LINDOBND  W23                  1
 UP LINDOBND  X23             100000
 UP LINDOBND  W24                  1
 UP LINDOBND  X24             100000
 UP LINDOBND  W25                  1
 UP LINDOBND  X25             100000
 UP LINDOBND  W31                  1
 UP LINDOBND  X31             100000
 UP LINDOBND  W32                  1
 UP LINDOBND  X32             100000
 UP LINDOBND  W33                  1
 UP LINDOBND  X33             100000
 UP LINDOBND  W34                  1
 UP LINDOBND  X34             100000
 UP LINDOBND  W35                  1
 UP LINDOBND  X35             100000
 UP LINDOBND  W41                  1
 UP LINDOBND  X41             100000
 UP LINDOBND  W42                  1
 UP LINDOBND  X42             100000
 UP LINDOBND  W43                  1
 UP LINDOBND  X43             100000
 UP LINDOBND  W44                  1
 UP LINDOBND  X44             100000
 UP LINDOBND  W45                  1
 UP LINDOBND  X45             100000
 UP LINDOBND  W51                  1
 UP LINDOBND  X51             100000
 UP LINDOBND  W52                  1
 UP LINDOBND  X52             100000
 UP LINDOBND  W53                  1
 UP LINDOBND  X53             100000
 UP LINDOBND  W54                  1
 UP LINDOBND  X54             100000
 UP LINDOBND  W55                  1
 UP LINDOBND  X55             100000
ENDATA
